ssat_solver_solve2
#level: 41
Abc_NtkNodeNum(s->pNtk): 482  , BDD limit: 10240
Build BDD success
level 40: 2 element
Exist
level 39: 1 element
Random
level 38: 3 element
Exist
level 37: 1 element
Random
level 36: 3 element
Exist
level 35: 1 element
Random
level 34: 3 element
Exist
level 33: 1 element
Random
level 32: 3 element
Exist
level 31: 1 element
Random
level 30: 3 element
Exist
level 29: 1 element
Random
level 28: 3 element
Exist
level 27: 1 element
Random
level 26: 3 element
Exist
level 25: 1 element
Random
level 24: 3 element
Exist
level 23: 1 element
Random
level 22: 3 element
Exist
level 21: 1 element
Random
level 20: 3 element
Exist
level 19: 1 element
Random
level 18: 3 element
Exist
level 17: 1 element
Random
level 16: 3 element
Exist
level 15: 1 element
Random
level 14: 3 element
Exist
level 13: 1 element
Random
level 12: 3 element
Exist
level 11: 1 element
Random
level 10: 3 element
Exist
level 9: 1 element
Random
level 8: 3 element
Exist
level 7: 1 element
Random
level 6: 3 element
Exist
level 5: 1 element
Random
level 4: 3 element
Exist
level 3: 1 element
Random
level 2: 3 element
Exist
level 1: 1 element
Random
level 0: 3 element
Exist
c ssat solving in ABC
#var: 82
s SATISFIABLE
  > Upper bound = 1.000000e+00
  > Lower bound = 1.000000e+00
FINISHED CPU 0.12 MEM 61308 MAXMEM 61308 STALE 0 MAXMEM_RSS 0
<time name="ALL">180</time>
real 0.27
user 0.24
sys 0.12
